p tw 209 396
1 82
1 83
1 207
1 208
2 173
2 174
2 184
3 93
3 170
3 171
4 92
4 93
4 169
4 170
5 100
5 101
5 150
5 151
6 63
6 64
6 124
6 125
6 189
6 190
7 27
7 105
7 106
8 74
8 75
8 198
8 199
9 78
9 79
9 202
9 203
10 81
10 82
10 206
10 207
11 131
11 132
11 181
11 182
12 102
12 103
12 154
12 155
13 66
13 67
13 192
13 193
14 108
14 136
14 137
14 161
14 162
15 108
15 109
15 190
15 191
16 106
16 107
16 209
17 69
17 70
17 184
17 185
18 61
18 62
18 187
19 111
19 112
19 141
19 142
20 114
20 115
20 147
20 148
21 113
21 114
21 186
21 195
21 196
22 83
22 133
22 208
22 209
23 95
23 96
23 140
23 141
23 176
23 177
24 110
24 111
24 142
24 143
25 91
25 92
25 156
25 157
25 168
25 169
26 73
26 74
26 197
26 198
27 122
27 123
27 171
27 172
28 119
28 120
28 157
28 158
28 167
28 168
29 132
29 133
29 158
29 159
30 62
30 63
30 188
30 189
31 70
31 71
31 185
31 186
32 116
32 117
32 149
32 150
33 68
33 69
33 193
33 194
34 94
34 95
34 138
34 139
35 112
35 113
35 144
35 145
35 164
35 165
36 84
36 134
36 135
37 96
37 97
37 139
37 140
38 84
38 85
38 135
38 136
39 87
39 88
39 137
39 138
39 162
39 163
40 64
40 65
40 191
40 192
41 59
41 126
41 127
42 104
42 105
42 159
42 160
42 182
42 183
43 89
43 90
43 145
43 146
43 165
43 166
44 90
44 91
44 151
44 152
45 61
45 187
45 188
46 72
46 73
46 196
46 197
47 123
47 160
47 172
48 94
48 175
48 176
49 79
49 80
49 204
49 205
50 120
50 121
50 155
50 156
51 77
51 78
51 201
51 202
52 124
52 134
52 173
53 99
53 100
53 148
53 149
54 75
54 76
54 199
54 200
55 80
55 81
55 103
55 104
55 205
55 206
56 117
56 118
56 152
56 153
56 166
56 167
57 127
57 128
57 146
57 147
57 178
57 179
58 98
58 99
58 143
58 144
58 177
58 178
59 86
59 87
59 161
60 129
60 130
60 153
60 154
60 179
60 180
61 62
62 63
63 64
64 65
65 66
66 67
67 68
68 69
69 70
70 71
71 72
72 73
73 74
74 75
75 76
76 77
77 78
78 79
79 80
80 81
81 82
82 83
84 85
85 86
86 87
87 88
88 89
89 90
90 91
91 92
92 93
94 95
95 96
96 97
97 98
98 99
99 100
100 101
101 102
102 103
103 104
104 105
105 106
106 107
107 183
108 109
109 110
110 111
111 112
112 113
113 114
114 115
115 116
116 117
117 118
118 119
119 120
120 121
121 122
122 123
124 125
125 126
126 127
127 128
128 129
129 130
130 131
131 132
132 133
134 135
135 136
136 137
137 138
138 139
139 140
140 141
141 142
142 143
143 144
144 145
145 146
146 147
147 148
148 149
149 150
150 151
151 152
152 153
153 154
154 155
155 156
156 157
157 158
158 159
159 160
161 162
162 163
163 164
164 165
165 166
166 167
167 168
168 169
169 170
170 171
171 172
173 174
174 175
175 176
176 177
177 178
178 179
179 180
180 181
181 182
182 183
184 185
185 186
187 188
188 189
189 190
190 191
191 192
192 193
193 194
194 195
195 196
196 197
197 198
198 199
199 200
200 201
201 202
202 203
203 204
204 205
205 206
206 207
207 208
208 209
